(set-info :source |printed by MathSAT|)
(declare-fun call_cc_allowed.call_MoreThanOneSec._Y_ () Bool)
(declare-fun call_cc_allowed.ccall () Bool)
(declare-fun call__main_.ccall () Bool)
(declare-fun call_PosEdge5._Y_ () Bool)
(declare-fun call__main_.ite4 () Bool)
(declare-fun call__main_.call_PosEdge2._Y_ () Bool)
(declare-fun ite () Bool)
(declare-fun call_PosEdge2._Y_ () Bool)
(declare-fun call__main_.call_cc_allowed.call_MoreThanOneSec._Y_ () Bool)
(declare-fun call_cc_allowed.call_MoreThanTwoSec._Y_ () Bool)
(declare-fun call__main_.call_cc_allowed.call_MoreThanTwoSec._Y_ () Bool)
(declare-fun call_Edge2._Y_ () Bool)
(declare-fun param_battok () Bool)
(declare-fun call_PosEdge4.flby () Bool)
(declare-fun call__main_.ite3 () Bool)
(declare-fun call__main_.call_one_button_accept.call_prev_no_button.flby () Bool)
(declare-fun param_vs () Int)
(declare-fun p3 () Bool)
(declare-fun call__main_.call_one_button_accept.call_AtLeastOnceSince.XsinceY () Bool)
(declare-fun param_qfok () Bool)
(declare-fun call__main_.call_PosEdge._Y_ () Bool)
(declare-fun param_ccd () Bool)
(declare-fun call_PosEdge.flby () Bool)
(declare-fun call_cc_allowed.call_MoreThanTwoSec.flby () Bool)
(declare-fun param_ccr () Bool)
(declare-fun param_cccanc () Bool)
(declare-fun call__main_.call_one_button_accept.pnb () Bool)
(declare-fun call_PosEdge4._Y_ () Bool)
(declare-fun env () Bool)
(declare-fun call__main_.call_one_button_accept.oba () Bool)
(declare-fun call__main_.call_cc_allowed.call_MoreThanOneSec.flby () Bool)
(declare-fun p4 () Bool)
(declare-fun param_igsw () Bool)
(declare-fun ccont () Bool)
(declare-fun call_Edge.flby () Bool)
(declare-fun call__main_.call_one_button_accept.call_AtLeastOnceSince.flby () Bool)
(declare-fun call__main_.cca () Bool)
(declare-fun call_cc_allowed.call_MoreThanOneSec.flby () Bool)
(declare-fun call__main_.flby () Bool)
(declare-fun call__main_.call_one_button_accept.ite () Bool)
(declare-fun p2 () Bool)
(declare-fun call__main_.call_one_button_accept.ite2 () Bool)
(declare-fun call_PosEdge6.flby () Bool)
(declare-fun ite4 () Bool)
(declare-fun call_PosEdge6._Y_ () Bool)
(declare-fun call__main_.param () Bool)
(declare-fun call__main_.ccont () Bool)
(declare-fun call_PosEdge._Y_ () Bool)
(declare-fun call_PosEdge3._Y_ () Bool)
(declare-fun call_PosEdge5.flby () Bool)
(declare-fun param_bpa () Bool)
(declare-fun call__main_.call_one_button_accept.call_PosEdge._Y_ () Bool)
(declare-fun call__main_.call_one_button_accept.call_PosEdge.flby () Bool)
(declare-fun call__main_.call_one_button_accept.call_prev_no_button.pnb () Bool)
(declare-fun flby () Bool)
(declare-fun _OK_ () Bool)
(declare-fun param_ccsetd () Bool)
(declare-fun call_PosEdge2.flby () Bool)
(declare-fun call__main_.call_one_button_accept.ob () Bool)
(declare-fun ite2 () Bool)
(declare-fun call__main_.call_cc_allowed.call_MoreThanTwoSec.flby2 () Bool)
(declare-fun call__main_.call_one_button_accept.call_one_button.ob () Bool)
(declare-fun call__main_.call_PosEdge.flby () Bool)
(declare-fun call__main_.flby2 () Bool)
(declare-fun call__main_.call_cc_allowed.ccall () Bool)
(declare-fun call__main_.call_Edge._Y_ () Bool)
(declare-fun call__main_.call_cc_allowed.call_MoreThanTwoSec.flby () Bool)
(declare-fun p1 () Bool)
(declare-fun call__main_.call_Edge.flby () Bool)
(declare-fun call_Edge2.flby () Bool)
(declare-fun param_gearok () Bool)
(declare-fun param_ccseti () Bool)
(declare-fun call_cc_allowed.call_MoreThanTwoSec.flby2 () Bool)
(declare-fun call__main_.call_PosEdge2.flby () Bool)
(declare-fun call_PosEdge3.flby () Bool)
(declare-fun cca () Bool)
(declare-fun call__main_.call_one_button_accept.call_AtLeastOnceSince.ite () Bool)
(declare-fun ite3 () Bool)
(declare-fun call_Edge._Y_ () Bool)
(define-fun .def_930 () Bool (= call__main_.call_one_button_accept.call_AtLeastOnceSince.XsinceY call__main_.call_one_button_accept.call_AtLeastOnceSince.ite))
(define-fun .def_927 () Bool (= call__main_.call_one_button_accept.call_PosEdge.flby call__main_.call_one_button_accept.call_PosEdge._Y_))
(define-fun .def_925 () Bool (= call__main_.call_one_button_accept.call_AtLeastOnceSince.flby call__main_.call_one_button_accept.call_AtLeastOnceSince.ite))
(define-fun .def_926 () Bool (or call__main_.call_one_button_accept.call_PosEdge._Y_ .def_925))
(define-fun .def_928 () Bool (and .def_926 .def_927))
(define-fun .def_914 () Bool (not param_ccsetd))
(define-fun .def_919 () Bool (and param_ccseti .def_914))
(define-fun .def_793 () Bool (not param_ccr))
(define-fun .def_920 () Bool (and .def_793 .def_919))
(define-fun .def_912 () Bool (not param_ccseti))
(define-fun .def_917 () Bool (and .def_912 param_ccsetd))
(define-fun .def_918 () Bool (and .def_793 .def_917))
(define-fun .def_921 () Bool (or .def_918 .def_920))
(define-fun .def_915 () Bool (and .def_912 .def_914))
(define-fun .def_916 () Bool (and param_ccr .def_915))
(define-fun .def_922 () Bool (or .def_916 .def_921))
(define-fun .def_923 () Bool (= call__main_.call_one_button_accept.call_one_button.ob .def_922))
(define-fun .def_909 () Bool (= call__main_.call_one_button_accept.call_prev_no_button.flby call__main_.call_one_button_accept.call_prev_no_button.pnb))
(define-fun .def_907 () Bool (= call__main_.call_one_button_accept.pnb call__main_.call_one_button_accept.call_prev_no_button.pnb))
(define-fun .def_903 () Bool (= call__main_.call_one_button_accept.ob call__main_.call_one_button_accept.call_one_button.ob))
(define-fun .def_899 () Bool (= call__main_.call_one_button_accept.ite call__main_.call_one_button_accept.ite2))
(define-fun .def_896 () Bool (and call__main_.call_one_button_accept.ob call__main_.call_one_button_accept.pnb))
(define-fun .def_898 () Bool (not .def_896))
(define-fun .def_900 () Bool (or .def_898 .def_899))
(define-fun .def_893 () Bool (not call__main_.call_one_button_accept.ite2))
(define-fun .def_897 () Bool (or .def_893 .def_896))
(define-fun .def_901 () Bool (and .def_897 .def_900))
(define-fun .def_904 () Bool (and .def_901 .def_903))
(define-fun .def_891 () Bool (= call__main_.call_one_button_accept.oba call__main_.call_one_button_accept.ite2))
(define-fun .def_888 () Bool (= call__main_.call_cc_allowed.call_MoreThanTwoSec.flby2 call__main_.call_cc_allowed.call_MoreThanTwoSec._Y_))
(define-fun .def_886 () Bool (= call__main_.call_cc_allowed.call_MoreThanOneSec.flby call__main_.call_cc_allowed.call_MoreThanOneSec._Y_))
(define-fun .def_807 () Bool (not param_bpa))
(define-fun .def_873 () Bool (and call__main_.ccont .def_807))
(define-fun .def_874 () Bool (and param_battok .def_873))
(define-fun .def_875 () Bool (and param_gearok .def_874))
(define-fun .def_876 () Bool (and param_qfok .def_875))
(define-fun .def_878 () Bool (and .def_876 call__main_.call_cc_allowed.call_MoreThanOneSec._Y_))
(define-fun .def_818 () Bool (<= 35 param_vs))
(define-fun .def_879 () Bool (and .def_818 .def_878))
(define-fun .def_820 () Bool (<= param_vs 200))
(define-fun .def_880 () Bool (and .def_820 .def_879))
(define-fun .def_882 () Bool (and .def_880 call__main_.call_cc_allowed.call_MoreThanTwoSec._Y_))
(define-fun .def_825 () Bool (not param_cccanc))
(define-fun .def_883 () Bool (and .def_825 .def_882))
(define-fun .def_884 () Bool (= call__main_.call_cc_allowed.ccall .def_883))
(define-fun .def_871 () Bool (= call__main_.call_PosEdge2.flby call__main_.call_PosEdge2._Y_))
(define-fun .def_868 () Bool (= call__main_.call_PosEdge.flby call__main_.call_PosEdge._Y_))
(define-fun .def_865 () Bool (= call__main_.call_Edge.flby call__main_.call_Edge._Y_))
(define-fun .def_861 () Bool (not call__main_.call_one_button_accept.call_PosEdge._Y_))
(define-fun .def_859 () Bool (= call__main_.param call__main_.call_one_button_accept.call_AtLeastOnceSince.ite))
(define-fun .def_862 () Bool (or .def_859 .def_861))
(define-fun .def_854 () Bool (= call__main_.ccall call__main_.call_cc_allowed.ccall))
(define-fun .def_848 () Bool (and call__main_.ccall call__main_.call_one_button_accept.oba))
(define-fun .def_850 () Bool (not .def_848))
(define-fun .def_851 () Bool (or call__main_.ite4 .def_850))
(define-fun .def_846 () Bool (= call__main_.ite3 call__main_.ite4))
(define-fun .def_849 () Bool (or .def_846 .def_848))
(define-fun .def_852 () Bool (and .def_849 .def_851))
(define-fun .def_855 () Bool (and .def_852 .def_854))
(define-fun .def_843 () Bool (= call__main_.flby2 call__main_.cca))
(define-fun .def_841 () Bool (= call__main_.flby call__main_.ccont))
(define-fun .def_839 () Bool (= call_Edge2.flby call_Edge2._Y_))
(define-fun .def_837 () Bool (= call_PosEdge6.flby call_PosEdge6._Y_))
(define-fun .def_835 () Bool (= call_Edge.flby call_Edge._Y_))
(define-fun .def_833 () Bool (= call_PosEdge5.flby call_PosEdge5._Y_))
(define-fun .def_831 () Bool (= call_cc_allowed.call_MoreThanTwoSec.flby2 call_cc_allowed.call_MoreThanTwoSec._Y_))
(define-fun .def_829 () Bool (= call_cc_allowed.call_MoreThanOneSec.flby call_cc_allowed.call_MoreThanOneSec._Y_))
(define-fun .def_808 () Bool (and ccont .def_807))
(define-fun .def_810 () Bool (and .def_808 param_battok))
(define-fun .def_812 () Bool (and .def_810 param_gearok))
(define-fun .def_814 () Bool (and .def_812 param_qfok))
(define-fun .def_816 () Bool (and .def_814 call_cc_allowed.call_MoreThanOneSec._Y_))
(define-fun .def_819 () Bool (and .def_816 .def_818))
(define-fun .def_821 () Bool (and .def_819 .def_820))
(define-fun .def_823 () Bool (and .def_821 call_cc_allowed.call_MoreThanTwoSec._Y_))
(define-fun .def_826 () Bool (and .def_823 .def_825))
(define-fun .def_827 () Bool (= call_cc_allowed.ccall .def_826))
(define-fun .def_804 () Bool (= call_PosEdge4.flby call_PosEdge4._Y_))
(define-fun .def_802 () Bool (= call_PosEdge3.flby call_PosEdge3._Y_))
(define-fun .def_800 () Bool (= call_PosEdge2.flby call_PosEdge2._Y_))
(define-fun .def_798 () Bool (= call_PosEdge.flby call_PosEdge._Y_))
(define-fun .def_795 () Bool (or call__main_.call_one_button_accept.ite param_ccr))
(define-fun .def_791 () Bool (= call__main_.call_one_button_accept.ite call__main_.call_one_button_accept.call_AtLeastOnceSince.XsinceY))
(define-fun .def_794 () Bool (or .def_791 .def_793))
(define-fun .def_796 () Bool (and .def_794 .def_795))
(define-fun .def_787 () Bool (or ite4 call_Edge2._Y_))
(define-fun .def_783 () Bool (not call_PosEdge5._Y_))
(define-fun .def_778 () Bool (not param_ccd))
(define-fun .def_776 () Bool (not call_Edge._Y_))
(define-fun .def_779 () Bool (and .def_776 .def_778))
(define-fun .def_781 () Bool (and .def_779 call_PosEdge6._Y_))
(define-fun .def_782 () Bool (= ite3 .def_781))
(define-fun .def_784 () Bool (or .def_782 .def_783))
(define-fun .def_774 () Bool (or ite3 call_PosEdge5._Y_))
(define-fun .def_785 () Bool (and .def_774 .def_784))
(define-fun .def_770 () Bool (not call_cc_allowed.ccall))
(define-fun .def_771 () Bool (or ite2 .def_770))
(define-fun .def_766 () Bool (not call_PosEdge._Y_))
(define-fun .def_762 () Bool (or call_PosEdge2._Y_ call_PosEdge3._Y_))
(define-fun .def_764 () Bool (or .def_762 call_PosEdge4._Y_))
(define-fun .def_765 () Bool (= ite .def_764))
(define-fun .def_767 () Bool (or .def_765 .def_766))
(define-fun .def_759 () Bool (or ite call_PosEdge._Y_))
(define-fun .def_768 () Bool (and .def_759 .def_767))
(define-fun .def_756 () Bool (= flby env))
(define-fun .def_752 () Bool (= cca call__main_.cca))
(define-fun .def_742 () Bool (not cca))
(define-fun .def_747 () Bool (= ite2 .def_742))
(define-fun .def_749 () Bool (or .def_747 call_cc_allowed.ccall))
(define-fun .def_745 () Bool (not call_Edge2._Y_))
(define-fun .def_743 () Bool (= ite4 .def_742))
(define-fun .def_746 () Bool (or .def_743 .def_745))
(define-fun .def_750 () Bool (and .def_746 .def_749))
(define-fun .def_753 () Bool (and .def_750 .def_752))
(define-fun .def_739 () Bool (= ccont call__main_.ccont))
(define-fun .def_735 () Bool (= p4 ite4))
(define-fun .def_732 () Bool (= p3 ite3))
(define-fun .def_729 () Bool (= p2 ite2))
(define-fun .def_726 () Bool (= p1 ite))
(define-fun .def_719 () Bool (and p1 p2))
(define-fun .def_721 () Bool (and .def_719 p3))
(define-fun .def_723 () Bool (and .def_721 p4))
(define-fun .def_724 () Bool (= _OK_ .def_723))
(define-fun .def_727 () Bool (and .def_724 .def_726))
(define-fun .def_730 () Bool (and .def_727 .def_729))
(define-fun .def_733 () Bool (and .def_730 .def_732))
(define-fun .def_736 () Bool (and .def_733 .def_735))
(define-fun .def_740 () Bool (and .def_736 .def_739))
(define-fun .def_754 () Bool (and .def_740 .def_753))
(define-fun .def_757 () Bool (and .def_754 .def_756))
(define-fun .def_769 () Bool (and .def_757 .def_768))
(define-fun .def_772 () Bool (and .def_769 .def_771))
(define-fun .def_786 () Bool (and .def_772 .def_785))
(define-fun .def_788 () Bool (and .def_786 .def_787))
(define-fun .def_797 () Bool (and .def_788 .def_796))
(define-fun .def_799 () Bool (and .def_797 .def_798))
(define-fun .def_801 () Bool (and .def_799 .def_800))
(define-fun .def_803 () Bool (and .def_801 .def_802))
(define-fun .def_805 () Bool (and .def_803 .def_804))
(define-fun .def_828 () Bool (and .def_805 .def_827))
(define-fun .def_830 () Bool (and .def_828 .def_829))
(define-fun .def_832 () Bool (and .def_830 .def_831))
(define-fun .def_834 () Bool (and .def_832 .def_833))
(define-fun .def_836 () Bool (and .def_834 .def_835))
(define-fun .def_838 () Bool (and .def_836 .def_837))
(define-fun .def_840 () Bool (and .def_838 .def_839))
(define-fun .def_842 () Bool (and .def_840 .def_841))
(define-fun .def_844 () Bool (and .def_842 .def_843))
(define-fun .def_856 () Bool (and .def_844 .def_855))
(define-fun .def_863 () Bool (and .def_856 .def_862))
(define-fun .def_866 () Bool (and .def_863 .def_865))
(define-fun .def_869 () Bool (and .def_866 .def_868))
(define-fun .def_872 () Bool (and .def_869 .def_871))
(define-fun .def_885 () Bool (and .def_872 .def_884))
(define-fun .def_887 () Bool (and .def_885 .def_886))
(define-fun .def_889 () Bool (and .def_887 .def_888))
(define-fun .def_892 () Bool (and .def_889 .def_891))
(define-fun .def_905 () Bool (and .def_892 .def_904))
(define-fun .def_908 () Bool (and .def_905 .def_907))
(define-fun .def_910 () Bool (and .def_908 .def_909))
(define-fun .def_924 () Bool (and .def_910 .def_923))
(define-fun .def_929 () Bool (and .def_924 .def_928))
(define-fun .def_931 () Bool (and .def_929 .def_930))
(define-fun .def_712 () Bool (not call__main_.call_one_button_accept.call_PosEdge.flby))
(define-fun .def_707 () Bool (not call__main_.call_cc_allowed.call_MoreThanTwoSec.flby2))
(define-fun .def_704 () Bool (not call__main_.call_cc_allowed.call_MoreThanTwoSec.flby))
(define-fun .def_701 () Bool (not call__main_.call_cc_allowed.call_MoreThanOneSec.flby))
(define-fun .def_698 () Bool (not call__main_.call_PosEdge2.flby))
(define-fun .def_695 () Bool (not call__main_.call_PosEdge.flby))
(define-fun .def_692 () Bool (not call__main_.call_Edge.flby))
(define-fun .def_689 () Bool (not call__main_.flby2))
(define-fun .def_686 () Bool (not call__main_.flby))
(define-fun .def_681 () Bool (not call__main_.ite3))
(define-fun .def_683 () Bool (or .def_681 call__main_.ccall))
(define-fun .def_678 () Bool (not call_Edge2.flby))
(define-fun .def_675 () Bool (not call_PosEdge6.flby))
(define-fun .def_672 () Bool (not call_Edge.flby))
(define-fun .def_669 () Bool (not call_PosEdge5.flby))
(define-fun .def_666 () Bool (not call_cc_allowed.call_MoreThanTwoSec.flby2))
(define-fun .def_663 () Bool (not call_cc_allowed.call_MoreThanTwoSec.flby))
(define-fun .def_660 () Bool (not call_cc_allowed.call_MoreThanOneSec.flby))
(define-fun .def_657 () Bool (not call_PosEdge4.flby))
(define-fun .def_654 () Bool (not call_PosEdge3.flby))
(define-fun .def_651 () Bool (not call_PosEdge2.flby))
(define-fun .def_646 () Bool (not param_igsw))
(define-fun .def_648 () Bool (= .def_646 flby))
(define-fun .def_644 () Bool (not call_PosEdge.flby))
(define-fun .def_649 () Bool (and .def_644 .def_648))
(define-fun .def_652 () Bool (and .def_649 .def_651))
(define-fun .def_655 () Bool (and .def_652 .def_654))
(define-fun .def_658 () Bool (and .def_655 .def_657))
(define-fun .def_661 () Bool (and .def_658 .def_660))
(define-fun .def_664 () Bool (and .def_661 .def_663))
(define-fun .def_667 () Bool (and .def_664 .def_666))
(define-fun .def_670 () Bool (and .def_667 .def_669))
(define-fun .def_673 () Bool (and .def_670 .def_672))
(define-fun .def_676 () Bool (and .def_673 .def_675))
(define-fun .def_679 () Bool (and .def_676 .def_678))
(define-fun .def_684 () Bool (and .def_679 .def_683))
(define-fun .def_687 () Bool (and .def_684 .def_686))
(define-fun .def_690 () Bool (and .def_687 .def_689))
(define-fun .def_693 () Bool (and .def_690 .def_692))
(define-fun .def_696 () Bool (and .def_693 .def_695))
(define-fun .def_699 () Bool (and .def_696 .def_698))
(define-fun .def_702 () Bool (and .def_699 .def_701))
(define-fun .def_705 () Bool (and .def_702 .def_704))
(define-fun .def_708 () Bool (and .def_705 .def_707))
(define-fun .def_710 () Bool (and .def_708 call__main_.call_one_button_accept.call_prev_no_button.flby))
(define-fun .def_713 () Bool (and .def_710 .def_712))
(define-fun .def_715 () Bool (and .def_713 call__main_.call_one_button_accept.call_AtLeastOnceSince.flby))
(define-fun .def_932 () Bool (and .def_715 .def_931))
(assert .def_932)
